c is-sat
p cnf 9 58
-5 -2 -8 0
-9 -4 -8 0
8 4 -3 0
-7 5 1 0
7 1 -4 0
6 -2 -7 0
1 -6 8 0
-3 -1 -9 0
-7 9 -2 0
-1 -4 5 0
-8 5 1 0
-8 -3 -2 0
-1 4 5 0
-2 8 6 0
1 -8 -5 0
-5 6 -8 0
-9 -1 -7 0
-5 -1 4 0
-7 -6 -1 0
2 -7 9 0
3 -5 -1 0
-7 1 6 0
-5 1 8 0
-6 -4 -1 0
-8 -3 -6 0
3 -5 -6 0
1 8 -7 0
2 4 -1 0
-2 -3 -1 0
-5 -2 1 0
6 -9 -7 0
-2 -5 8 0
-3 2 -7 0
-5 1 8 0
9 -8 -1 0
-1 -9 2 0
-9 -2 -1 0
-4 -5 -8 0
-4 3 2 0
-8 5 -4 0
2 -6 -4 0
-8 -7 3 0
-5 -2 -9 0
7 -3 2 0
-1 -6 3 0
-3 -9 4 0
9 -5 -2 0
-9 1 -2 0
-4 -2 -8 0
7 -3 5 0
8 5 -4 0
8 -4 -2 0
4 -2 -9 0
-1 5 8 0
-9 -1 -5 0
-6 -8 -4 0
-3 5 -4 0
5 -3 -4 0
